(declare-fun temp23242_1 () (_ BitVec 64))
(declare-fun temp23242_2 () (_ BitVec 64))
(declare-fun var77740 () (_ BitVec 64))
(declare-fun k!0 () Bool)
(declare-fun ARGNAME_input_1_NAMEEND_DIM () (_ BitVec 64))
(declare-fun ARGNAME_data_format_NAMEEND_STRFMT () (_ BitVec 64))
(declare-fun temp23242_3 () (_ BitVec 64))
(declare-fun ARGNAME_input_2_NAMEEND_DIM () (_ BitVec 64))
(declare-fun var77770 () (_ BitVec 64))
(declare-fun temp23242_4 () (_ BitVec 64))
(declare-fun temp23242_5 () (_ BitVec 64))
(declare-fun ARGNAME_input_1_NAMEEND_DIMSIZE
             ()
             (Array (_ BitVec 64) (_ BitVec 64)))
(declare-fun temp23242_6 () (_ BitVec 64))
(declare-fun temp23242_7 () (_ BitVec 64))
(declare-fun temp23242_8 () (_ BitVec 64))
(declare-fun temp23242_9 () (_ BitVec 64))
(declare-fun temp23242_10 () (_ BitVec 64))
(declare-fun temp23242_11 () (_ BitVec 64))
(declare-fun temp23242_12 () (_ BitVec 64))
(declare-fun temp23242_13 () (_ BitVec 64))
(declare-fun temp23242_14 () (_ BitVec 64))
(declare-fun temp23242_15 () (_ BitVec 64))
(declare-fun temp23242_16 () (_ BitVec 64))
(declare-fun temp23242_17 () (_ BitVec 64))
(declare-fun temp23242_18 () (_ BitVec 64))
(declare-fun var77799 () (_ BitVec 64))
(declare-fun temp23242_19 () (_ BitVec 64))
(declare-fun ARGNAME_input_2_NAMEEND_DIMSIZE
             ()
             (Array (_ BitVec 64) (_ BitVec 64)))
(declare-fun temp23242_20 () (_ BitVec 64))
(declare-fun temp23242_21 () (_ BitVec 64))
(declare-fun temp23242_22 () (_ BitVec 64))
(declare-fun temp23242_23 () (_ BitVec 64))
(declare-fun temp23242_24 () (_ BitVec 64))
(declare-fun temp23242_25 () (_ BitVec 64))
(declare-fun temp23242_26 () (_ BitVec 64))
(declare-fun temp23242_27 () (_ BitVec 64))
(declare-fun temp23242_28 () (_ BitVec 64))
(declare-fun temp23242_29 () (_ BitVec 64))
(declare-fun temp23242_30 () (_ BitVec 64))
(declare-fun temp23242_31 () (_ BitVec 64))
(declare-fun temp23242_32 () (_ BitVec 64))
(declare-fun var77832 () (_ BitVec 64))
(declare-fun temp23242_33 () (_ BitVec 64))
(declare-fun temp23242_34 () (_ BitVec 64))
(declare-fun var77833 () (_ BitVec 64))
(declare-fun var77834 () (_ BitVec 64))
(declare-fun temp23242_35 () (_ BitVec 64))
(declare-fun temp23242_36 () (_ BitVec 64))
(declare-fun var275510 () (_ BitVec 64))
(declare-fun temp23242_37 () (_ BitVec 64))
(declare-fun var275528 () (_ BitVec 64))
(declare-fun temp23242_38 () (_ BitVec 64))
(declare-fun temp23242_39 () (_ BitVec 64))
(declare-fun var406582 () (_ BitVec 64))
(declare-fun temp23242_40 () (_ BitVec 64))
(declare-fun var406600 () (_ BitVec 64))
(declare-fun temp23242_41 () (_ BitVec 64))
(declare-fun temp23242_43 () (_ BitVec 64))
(declare-fun temp23242_42 () (_ BitVec 64))
(declare-fun temp23242_44 () (_ BitVec 64))
(declare-fun var603190 () (_ BitVec 64))
(declare-fun temp23242_45 () (_ BitVec 64))
(declare-fun var603208 () (_ BitVec 64))
(declare-fun temp23242_46 () (_ BitVec 64))
(declare-fun temp23242_48 () (_ BitVec 64))
(declare-fun temp23242_47 () (_ BitVec 64))
(declare-fun temp23242_50 () (_ BitVec 64))
(declare-fun temp23242_49 () (_ BitVec 64))
(declare-fun temp23242_52 () (_ BitVec 64))
(declare-fun temp23242_51 () (_ BitVec 64))
(declare-fun temp23242_54 () (_ BitVec 64))
(declare-fun temp23242_53 () (_ BitVec 64))
(declare-fun temp23242_56 () (_ BitVec 64))
(declare-fun temp23242_55 () (_ BitVec 64))
(declare-fun temp23242_58 () (_ BitVec 64))
(declare-fun temp23242_57 () (_ BitVec 64))
(declare-fun temp23242_59 () (_ BitVec 64))
(declare-fun var926770 () (_ BitVec 64))
(declare-fun temp23242_60 () (_ BitVec 64))
(declare-fun var926771 () (_ BitVec 64))
(declare-fun var926772 () (_ BitVec 64))
(declare-fun var926768 () (_ BitVec 64))
(declare-fun var664540 () (_ BitVec 64))
(declare-fun temp23242_61 () (_ BitVec 64))
(declare-fun var992306 () (_ BitVec 64))
(declare-fun temp23242_62 () (_ BitVec 64))
(declare-fun var992307 () (_ BitVec 64))
(declare-fun var992308 () (_ BitVec 64))
(declare-fun var992304 () (_ BitVec 64))
(declare-fun var664547 () (_ BitVec 64))
(declare-fun temp23242_63 () (_ BitVec 64))
(declare-fun var1057842 () (_ BitVec 64))
(declare-fun temp23242_64 () (_ BitVec 64))
(declare-fun var1057843 () (_ BitVec 64))
(declare-fun var1057844 () (_ BitVec 64))
(declare-fun var1057840 () (_ BitVec 64))
(declare-fun var664552 () (_ BitVec 64))
(declare-fun var78095 () (_ BitVec 64))
(declare-fun temp23242_65 () (_ BitVec 64))
(declare-fun temp23242_66 () (_ BitVec 64))
(declare-fun var78184 () (_ BitVec 64))
(declare-fun temp23242_68 () (_ BitVec 64))
(declare-fun temp23242_67 () (_ BitVec 64))
(declare-fun temp23242_70 () (_ BitVec 64))
(declare-fun temp23242_69 () (_ BitVec 64))
(declare-fun temp23242_71 () (_ BitVec 64))
(declare-fun var78544 () (_ BitVec 64))
(declare-fun temp23242_72 () (_ BitVec 64))
(declare-fun var78545 () (_ BitVec 64))
(assert (or (= ARGNAME_data_format_NAMEEND_STRFMT #x0000000000000000)
    (= ARGNAME_data_format_NAMEEND_STRFMT #x0000000000000001)
    (= ARGNAME_data_format_NAMEEND_STRFMT #x0000000000000002)
    (= ARGNAME_data_format_NAMEEND_STRFMT #x0000000000000003)
    (= ARGNAME_data_format_NAMEEND_STRFMT #x0000000000000004)
    (= ARGNAME_data_format_NAMEEND_STRFMT #x0000000000000005)))
(assert (= temp23242_1 #x0000000000000005))
(assert (= var77740
   (ite (= ARGNAME_input_1_NAMEEND_DIM temp23242_1)
        #x0000000000000001
        #x0000000000000000)))
(assert (= temp23242_2 #x0000000000000001))
(assert (= var77740 temp23242_2))
(assert (= temp23242_3 #x0000000000000005))
(assert (= var77770
   (ite (= ARGNAME_input_2_NAMEEND_DIM temp23242_3)
        #x0000000000000001
        #x0000000000000000)))
(assert (= temp23242_4 #x0000000000000001))
(assert (= var77770 temp23242_4))
(assert (= temp23242_5 #x0000000000000000))
(assert (= temp23242_6 (select ARGNAME_input_1_NAMEEND_DIMSIZE temp23242_5)))
(assert (= temp23242_7 #x0000000000000001))
(assert (= temp23242_8 (select ARGNAME_input_1_NAMEEND_DIMSIZE temp23242_7)))
(assert (= temp23242_9 #x0000000000000002))
(assert (= temp23242_10 (select ARGNAME_input_1_NAMEEND_DIMSIZE temp23242_9)))
(assert (= temp23242_11 #x0000000000000003))
(assert (= temp23242_12 (select ARGNAME_input_1_NAMEEND_DIMSIZE temp23242_11)))
(assert (= temp23242_13 #x0000000000000004))
(assert (= temp23242_14 (select ARGNAME_input_1_NAMEEND_DIMSIZE temp23242_13)))
(assert (= temp23242_15 #x0000000000000005))
(assert (= temp23242_16 (select ARGNAME_input_1_NAMEEND_DIMSIZE temp23242_15)))
(assert (= temp23242_17 #x0000000000000003))
(assert (= temp23242_18 (select ARGNAME_input_1_NAMEEND_DIMSIZE temp23242_17)))
(assert (= var77799 temp23242_18))
(assert (= temp23242_19 #x0000000000000000))
(assert (= temp23242_20 (select ARGNAME_input_2_NAMEEND_DIMSIZE temp23242_19)))
(assert (= temp23242_21 #x0000000000000001))
(assert (= temp23242_22 (select ARGNAME_input_2_NAMEEND_DIMSIZE temp23242_21)))
(assert (= temp23242_23 #x0000000000000002))
(assert (= temp23242_24 (select ARGNAME_input_2_NAMEEND_DIMSIZE temp23242_23)))
(assert (= temp23242_25 #x0000000000000003))
(assert (= temp23242_26 (select ARGNAME_input_2_NAMEEND_DIMSIZE temp23242_25)))
(assert (= temp23242_27 #x0000000000000004))
(assert (= temp23242_28 (select ARGNAME_input_2_NAMEEND_DIMSIZE temp23242_27)))
(assert (= temp23242_29 #x0000000000000005))
(assert (= temp23242_30 (select ARGNAME_input_2_NAMEEND_DIMSIZE temp23242_29)))
(assert (= temp23242_31 #x0000000000000004))
(assert (= temp23242_32 (select ARGNAME_input_2_NAMEEND_DIMSIZE temp23242_31)))
(assert (= var77832 temp23242_32))
(assert (= temp23242_33 #x0000000000000004))
(assert (= temp23242_34 (select ARGNAME_input_1_NAMEEND_DIMSIZE temp23242_33)))
(assert (= var77833 temp23242_34))
(assert (= var77834 (ite (= var77832 var77833) #x0000000000000001 #x0000000000000000)))
(assert (= temp23242_35 #x0000000000000001))
(assert (= var77834 temp23242_35))
(assert (= temp23242_36 #x0000000000000001))
(assert (= var275510 temp23242_36))
(assert (= temp23242_37 #x0000000000000001))
(assert (= var275528
   (ite (bvslt var275510 temp23242_37) #x0000000000000001 #x0000000000000000)))
(assert (= temp23242_38 #x0000000000000000))
(assert (= var275528 temp23242_38))
(assert (= temp23242_39 #x0000000000000001))
(assert (= var406582 temp23242_39))
(assert (= temp23242_40 #x0000000000000001))
(assert (= var406600
   (ite (bvslt var406582 temp23242_40) #x0000000000000001 #x0000000000000000)))
(assert (= temp23242_41 #x0000000000000000))
(assert (= var406600 temp23242_41))
(assert (= temp23242_43 #x0000000000000000))
(assert (= temp23242_42 temp23242_43))
(assert (= temp23242_44 #x0000000000000001))
(assert (= var603190 temp23242_44))
(assert (= temp23242_45 #x0000000000000001))
(assert (= var603208
   (ite (bvslt var603190 temp23242_45) #x0000000000000001 #x0000000000000000)))
(assert (= temp23242_46 #x0000000000000000))
(assert (= var603208 temp23242_46))
(assert (= temp23242_48 #x00000000000000ff))
(assert (= temp23242_47 temp23242_48))
(assert (= temp23242_50 #x00000000000000ff))
(assert (= temp23242_49 temp23242_50))
(assert (= temp23242_52 #x00000000000000ff))
(assert (= temp23242_51 temp23242_52))
(assert (= temp23242_54 #x0000000000000000))
(assert (= temp23242_53 temp23242_54))
(assert (= temp23242_56 #x0000000000000000))
(assert (= temp23242_55 temp23242_56))
(assert (= temp23242_58 #x0000000000000000))
(assert (= temp23242_57 temp23242_58))
(assert (= temp23242_59 #x0000000000008000))
(assert (= var926770 temp23242_59))
(assert (= temp23242_60 #x0000000000000001))
(assert (= var926771
   (ite (bvslt temp23242_57 temp23242_60) #x0000000000000001 #x0000000000000000)))
(assert (= var926772 (ite (= var926771 #x0000000000000001) var926770 temp23242_57)))
(assert (= var926768 var926772))
(assert (= var664540 var926768))
(assert (= temp23242_61 #x0000000000040000))
(assert (= var992306 temp23242_61))
(assert (= temp23242_62 #x0000000000000001))
(assert (= var992307
   (ite (bvslt temp23242_55 temp23242_62) #x0000000000000001 #x0000000000000000)))
(assert (= var992308 (ite (= var992307 #x0000000000000001) var992306 temp23242_55)))
(assert (= var992304 var992308))
(assert (= var664547 var992304))
(assert (= temp23242_63 #x0000000000200000))
(assert (= var1057842 temp23242_63))
(assert (= temp23242_64 #x0000000000000001))
(assert (= var1057843
   (ite (bvslt temp23242_53 temp23242_64) #x0000000000000001 #x0000000000000000)))
(assert (= var1057844 (ite (= var1057843 #x0000000000000001) var1057842 temp23242_53)))
(assert (= var1057840 var1057844))
(assert (= var664552 var1057840))
(assert (= var78095 var664552))
(assert (= temp23242_65 #x0000000000000003))
(assert (= temp23242_66 #x0000000000000001))
(assert (= var78184 temp23242_66))
(assert (= temp23242_68 #x0000000000000001))
(assert (= temp23242_67 temp23242_68))
(assert (= temp23242_70 #x0000000000000001))
(assert (= temp23242_69 temp23242_70))
(assert (= temp23242_71 #x0000000000000000))
(assert (= var78544 temp23242_71))
(assert (= temp23242_72 #x0000000000000001))
(assert (= var78545 (bvadd var78544 temp23242_72)))
(model-add temp23242_1 () (_ BitVec 64) #x0000000000000005)
(model-add temp23242_2 () (_ BitVec 64) #x0000000000000001)
(model-add var77740 () (_ BitVec 64) #x0000000000000001)
(model-del k!0)
(model-add ARGNAME_input_1_NAMEEND_DIM
           ()
           (_ BitVec 64)
           (ite k!0 #x0000000000000005 (bvnot #x0000000000000005)))

